(declare-datatypes ((Unit 0)) (((unit))))
(declare-datatypes ((Bits 0)) (((Bits (len (_ BitVec 8)) (contents (_ BitVec 64))))))
(declare-datatypes ((Zfloat_bits 0)) (((Zfloat_bits (Zfloat_bits_zexp Bits) (Zfloat_bits_zmantissa Bits) (Zfloat_bits_zsign (_ BitVec 1))))))
(declare-datatypes ((Zexception 0)) (((z__dummy_exnz3 (unz__dummy_exnz3 Unit)))))
(declare-const zz4705/1 (_ BitVec 16))
(define-const zz4706/2 (_ BitVec 16) zz4705/1)
(declare-const zz4741/1 Bits)
(assert (= (bvand (bvnot (bvnot (bvshl #xFFFFFFFFFFFFFFFF (concat #x00000000000000 (len zz4741/1))))) (contents zz4741/1)) #x0000000000000000))
(define-const zz4741/2 Bits (Zfloat_bits_zmantissa (Zfloat_bits (Bits #x05 (concat #b00000000000000000000000000000000000000000000000000000000000 ((_ extract 14 10) zz4706/2))) (Bits #x0A (concat #b000000000000000000000000000000000000000000000000000000 ((_ extract 9 0) zz4706/2))) ((_ extract 15 15) zz4706/2))))
(define-const zz4744/2 Zfloat_bits (Zfloat_bits (Bits #x05 (concat #b00000000000000000000000000000000000000000000000000000000000 ((_ extract 14 10) zz4706/2))) (Bits #x0A (concat #b000000000000000000000000000000000000000000000000000000 ((_ extract 9 0) zz4706/2))) ((_ extract 15 15) zz4706/2)))
(declare-const zz4766/1 Bits)
(assert (= (bvand (bvnot (bvnot (bvshl #xFFFFFFFFFFFFFFFF (concat #x00000000000000 (len zz4766/1))))) (contents zz4766/1)) #x0000000000000000))
(define-const zz4766/2 Bits (Zfloat_bits_zexp zz4744/2))
(declare-const zz4767/1 Bits)
(assert (= (bvand (bvnot (bvnot (bvshl #xFFFFFFFFFFFFFFFF (concat #x00000000000000 (len zz4767/1))))) (contents zz4767/1)) #x0000000000000000))
(define-const zz4767/2 Bits (Zfloat_bits_zmantissa zz4744/2))
(declare-const zz4770/1 Bits)
(assert (= (bvand (bvnot (bvnot (bvshl #xFFFFFFFFFFFFFFFF (concat #x00000000000000 (len zz4770/1))))) (contents zz4770/1)) #x0000000000000000))
(declare-const zz4772/1 Bits)
(assert (= (bvand (bvnot (bvnot (bvshl #xFFFFFFFFFFFFFFFF (concat #x00000000000000 (len zz4772/1))))) (contents zz4772/1)) #x0000000000000000))
(define-const zz4772/2 Bits (Bits ((_ extract 7 0) (concat #x000000000000000000000000000000 (len zz4766/2))) #x0000000000000000))
(define-const zz4770/2 Bits (Bits (len zz4772/2) (bvand (bvnot (bvshl #xFFFFFFFFFFFFFFFF (concat #x00000000000000 (len zz4772/2)))) (bvnot (contents zz4772/2)))))
(declare-const zz4774/1 Bits)
(assert (= (bvand (bvnot (bvnot (bvshl #xFFFFFFFFFFFFFFFF (concat #x00000000000000 (len zz4774/1))))) (contents zz4774/1)) #x0000000000000000))
(define-const zz4774/2 Bits (Bits ((_ extract 7 0) (concat #x000000000000000000000000000000 (len zz4767/2))) #x0000000000000000))
(define-const zz4780/2 (_ BitVec 128) (concat #x000000000000000000000000000000 (len zz4741/2)))
(define-const zz4718/2 Bool (and (= (len zz4766/2) (len zz4770/2)) (= (bvand (bvnot (bvshl #xFFFFFFFFFFFFFFFF (concat #x00000000000000 (len zz4766/2)))) (contents zz4766/2)) (bvand (bvnot (bvshl #xFFFFFFFFFFFFFFFF (concat #x00000000000000 (len zz4770/2)))) (contents zz4770/2))) (or (not (= (len zz4767/2) (len zz4774/2))) (not (= (bvand (bvnot (bvshl #xFFFFFFFFFFFFFFFF (concat #x00000000000000 (len zz4767/2)))) (contents zz4767/2)) (bvand (bvnot (bvshl #xFFFFFFFFFFFFFFFF (concat #x00000000000000 (len zz4774/2)))) (contents zz4774/2))))) (= ((_ extract 0 0) (bvlshr (contents zz4741/2) ((_ extract 63 0) ((_ extract 127 0) (bvsub ((_ sign_extend 1) zz4780/2) #b000000000000000000000000000000000000000000000000000000000000000000000000000000000000000000000000000000000000000000000000000000001))))) #b0)))
(declare-const zz4781/1 (_ BitVec 64))
(define-const zz4783/2 Bool (= zz4718/2 false))
(define-const zz4717/2 (_ BitVec 64) (ite (and (= zz4718/2 false) (not zz4783/2)) zz4781/1 (ite zz4783/2 #x0000000000000000 #x0000000000000001)))
(define-const zz4717/4 (_ BitVec 64) zz4717/2)
(declare-const zz4810/1 Bits)
(assert (= (bvand (bvnot (bvnot (bvshl #xFFFFFFFFFFFFFFFF (concat #x00000000000000 (len zz4810/1))))) (contents zz4810/1)) #x0000000000000000))
(define-const zz4810/2 Bits (Zfloat_bits_zmantissa (Zfloat_bits (Bits #x05 (concat #b00000000000000000000000000000000000000000000000000000000000 ((_ extract 14 10) zz4706/2))) (Bits #x0A (concat #b000000000000000000000000000000000000000000000000000000 ((_ extract 9 0) zz4706/2))) ((_ extract 15 15) zz4706/2))))
(define-const zz4717/6 (_ BitVec 64) zz4717/4)
(define-const zz4813/2 Zfloat_bits (Zfloat_bits (Bits #x05 (concat #b00000000000000000000000000000000000000000000000000000000000 ((_ extract 14 10) zz4706/2))) (Bits #x0A (concat #b000000000000000000000000000000000000000000000000000000 ((_ extract 9 0) zz4706/2))) ((_ extract 15 15) zz4706/2)))
(declare-const zz4835/1 Bits)
(assert (= (bvand (bvnot (bvnot (bvshl #xFFFFFFFFFFFFFFFF (concat #x00000000000000 (len zz4835/1))))) (contents zz4835/1)) #x0000000000000000))
(define-const zz4835/2 Bits (Zfloat_bits_zexp zz4813/2))
(declare-const zz4836/1 Bits)
(assert (= (bvand (bvnot (bvnot (bvshl #xFFFFFFFFFFFFFFFF (concat #x00000000000000 (len zz4836/1))))) (contents zz4836/1)) #x0000000000000000))
(define-const zz4836/2 Bits (Zfloat_bits_zmantissa zz4813/2))
(declare-const zz4839/1 Bits)
(assert (= (bvand (bvnot (bvnot (bvshl #xFFFFFFFFFFFFFFFF (concat #x00000000000000 (len zz4839/1))))) (contents zz4839/1)) #x0000000000000000))
(declare-const zz4841/1 Bits)
(assert (= (bvand (bvnot (bvnot (bvshl #xFFFFFFFFFFFFFFFF (concat #x00000000000000 (len zz4841/1))))) (contents zz4841/1)) #x0000000000000000))
(define-const zz4841/2 Bits (Bits ((_ extract 7 0) (concat #x000000000000000000000000000000 (len zz4835/2))) #x0000000000000000))
(define-const zz4839/2 Bits (Bits (len zz4841/2) (bvand (bvnot (bvshl #xFFFFFFFFFFFFFFFF (concat #x00000000000000 (len zz4841/2)))) (bvnot (contents zz4841/2)))))
(declare-const zz4843/1 Bits)
(assert (= (bvand (bvnot (bvnot (bvshl #xFFFFFFFFFFFFFFFF (concat #x00000000000000 (len zz4843/1))))) (contents zz4843/1)) #x0000000000000000))
(define-const zz4843/2 Bits (Bits ((_ extract 7 0) (concat #x000000000000000000000000000000 (len zz4836/2))) #x0000000000000000))
(define-const zz4849/2 (_ BitVec 128) (concat #x000000000000000000000000000000 (len zz4810/2)))
(define-const zz4787/2 Bool (and (= (len zz4835/2) (len zz4839/2)) (= (bvand (bvnot (bvshl #xFFFFFFFFFFFFFFFF (concat #x00000000000000 (len zz4835/2)))) (contents zz4835/2)) (bvand (bvnot (bvshl #xFFFFFFFFFFFFFFFF (concat #x00000000000000 (len zz4839/2)))) (contents zz4839/2))) (or (not (= (len zz4836/2) (len zz4843/2))) (not (= (bvand (bvnot (bvshl #xFFFFFFFFFFFFFFFF (concat #x00000000000000 (len zz4836/2)))) (contents zz4836/2)) (bvand (bvnot (bvshl #xFFFFFFFFFFFFFFFF (concat #x00000000000000 (len zz4843/2)))) (contents zz4843/2))))) (= ((_ extract 0 0) (bvlshr (contents zz4810/2) ((_ extract 63 0) ((_ extract 127 0) (bvsub ((_ sign_extend 1) zz4849/2) #b000000000000000000000000000000000000000000000000000000000000000000000000000000000000000000000000000000000000000000000000000000001))))) #b1)))
(declare-const zz4850/1 (_ BitVec 64))
(define-const zz4852/2 Bool (= zz4787/2 false))
(define-const zz4854/2 Bool (= zz4787/2 true))
(define-const zphiz3213 Bool (and (not zz4854/2) (not zz4852/2)))
(define-const zz4717/8 (_ BitVec 64) zz4717/6)
(define-const zz4786/2 (_ BitVec 64) (ite zphiz3213 zz4850/1 (ite zz4852/2 #x0000000000000000 #x0000000000000001)))
(define-const zz4716/2 (_ BitVec 64) ((_ extract 63 0) (bvadd ((_ sign_extend 1) zz4717/8) ((_ sign_extend 1) zz4786/2))))
(define-const zz4716/4 (_ BitVec 64) zz4716/2)
(define-const zz4857/2 Zfloat_bits (Zfloat_bits (Bits #x05 (concat #b00000000000000000000000000000000000000000000000000000000000 ((_ extract 14 10) zz4706/2))) (Bits #x0A (concat #b000000000000000000000000000000000000000000000000000000 ((_ extract 9 0) zz4706/2))) ((_ extract 15 15) zz4706/2)))
(declare-const zz4879/1 Bits)
(assert (= (bvand (bvnot (bvnot (bvshl #xFFFFFFFFFFFFFFFF (concat #x00000000000000 (len zz4879/1))))) (contents zz4879/1)) #x0000000000000000))
(define-const zz4879/2 Bits (Zfloat_bits_zexp zz4857/2))
(declare-const zz4880/1 Bits)
(assert (= (bvand (bvnot (bvnot (bvshl #xFFFFFFFFFFFFFFFF (concat #x00000000000000 (len zz4880/1))))) (contents zz4880/1)) #x0000000000000000))
(define-const zz4880/2 Bits (Zfloat_bits_zmantissa zz4857/2))
(declare-const zz4883/1 Bits)
(assert (= (bvand (bvnot (bvnot (bvshl #xFFFFFFFFFFFFFFFF (concat #x00000000000000 (len zz4883/1))))) (contents zz4883/1)) #x0000000000000000))
(define-const zz4883/2 Bits (Bits ((_ extract 7 0) (concat #x000000000000000000000000000000 (len zz4879/2))) #x0000000000000000))
(declare-const zz4886/1 Bits)
(assert (= (bvand (bvnot (bvnot (bvshl #xFFFFFFFFFFFFFFFF (concat #x00000000000000 (len zz4886/1))))) (contents zz4886/1)) #x0000000000000000))
(define-const zz4886/2 Bits (Bits ((_ extract 7 0) (concat #x000000000000000000000000000000 (len zz4880/2))) #x0000000000000000))
(define-const zz4856/2 Bool (and (= (len zz4879/2) (len zz4883/2)) (= (bvand (bvnot (bvshl #xFFFFFFFFFFFFFFFF (concat #x00000000000000 (len zz4879/2)))) (contents zz4879/2)) (bvand (bvnot (bvshl #xFFFFFFFFFFFFFFFF (concat #x00000000000000 (len zz4883/2)))) (contents zz4883/2))) (= (len zz4880/2) (len zz4886/2)) (= (bvand (bvnot (bvshl #xFFFFFFFFFFFFFFFF (concat #x00000000000000 (len zz4880/2)))) (contents zz4880/2)) (bvand (bvnot (bvshl #xFFFFFFFFFFFFFFFF (concat #x00000000000000 (len zz4886/2)))) (contents zz4886/2)))))
(declare-const zz4888/1 (_ BitVec 64))
(define-const zz4890/2 Bool (= zz4856/2 false))
(define-const zz4892/2 Bool (= zz4856/2 true))
(define-const zphiz3278 Bool (and (not zz4892/2) (not zz4890/2)))
(define-const zz4716/6 (_ BitVec 64) zz4716/4)
(define-const zz4855/2 (_ BitVec 64) (ite zphiz3278 zz4888/1 (ite zz4890/2 #x0000000000000000 #x0000000000000001)))
(define-const zz4715/2 (_ BitVec 64) ((_ extract 63 0) (bvadd ((_ sign_extend 1) zz4716/6) ((_ sign_extend 1) zz4855/2))))
(define-const zz4715/4 (_ BitVec 64) zz4715/2)
(define-const zz4895/2 Zfloat_bits (Zfloat_bits (Bits #x05 (concat #b00000000000000000000000000000000000000000000000000000000000 ((_ extract 14 10) zz4706/2))) (Bits #x0A (concat #b000000000000000000000000000000000000000000000000000000 ((_ extract 9 0) zz4706/2))) ((_ extract 15 15) zz4706/2)))
(declare-const zz4917/1 Bits)
(assert (= (bvand (bvnot (bvnot (bvshl #xFFFFFFFFFFFFFFFF (concat #x00000000000000 (len zz4917/1))))) (contents zz4917/1)) #x0000000000000000))
(define-const zz4917/2 Bits (Zfloat_bits_zexp zz4895/2))
(declare-const zz4918/1 Bits)
(assert (= (bvand (bvnot (bvnot (bvshl #xFFFFFFFFFFFFFFFF (concat #x00000000000000 (len zz4918/1))))) (contents zz4918/1)) #x0000000000000000))
(define-const zz4918/2 Bits (Zfloat_bits_zmantissa zz4895/2))
(declare-const zz4921/1 Bits)
(assert (= (bvand (bvnot (bvnot (bvshl #xFFFFFFFFFFFFFFFF (concat #x00000000000000 (len zz4921/1))))) (contents zz4921/1)) #x0000000000000000))
(define-const zz4921/2 Bits (Bits ((_ extract 7 0) (concat #x000000000000000000000000000000 (len zz4917/2))) #x0000000000000000))
(declare-const zz4924/1 Bits)
(assert (= (bvand (bvnot (bvnot (bvshl #xFFFFFFFFFFFFFFFF (concat #x00000000000000 (len zz4924/1))))) (contents zz4924/1)) #x0000000000000000))
(define-const zz4924/2 Bits (Bits ((_ extract 7 0) (concat #x000000000000000000000000000000 (len zz4918/2))) #x0000000000000000))
(define-const zz4894/2 Bool (and (= (len zz4917/2) (len zz4921/2)) (= (bvand (bvnot (bvshl #xFFFFFFFFFFFFFFFF (concat #x00000000000000 (len zz4917/2)))) (contents zz4917/2)) (bvand (bvnot (bvshl #xFFFFFFFFFFFFFFFF (concat #x00000000000000 (len zz4921/2)))) (contents zz4921/2))) (or (not (= (len zz4918/2) (len zz4924/2))) (not (= (bvand (bvnot (bvshl #xFFFFFFFFFFFFFFFF (concat #x00000000000000 (len zz4918/2)))) (contents zz4918/2)) (bvand (bvnot (bvshl #xFFFFFFFFFFFFFFFF (concat #x00000000000000 (len zz4924/2)))) (contents zz4924/2)))))))
(declare-const zz4927/1 (_ BitVec 64))
(define-const zz4929/2 Bool (= zz4894/2 false))
(define-const zz4931/2 Bool (= zz4894/2 true))
(define-const zphiz3343 Bool (and (not zz4931/2) (not zz4929/2)))
(define-const zz4715/6 (_ BitVec 64) zz4715/4)
(define-const zz4893/2 (_ BitVec 64) (ite zphiz3343 zz4927/1 (ite zz4929/2 #x0000000000000000 #x0000000000000001)))
(define-const zz4714/2 (_ BitVec 64) ((_ extract 63 0) (bvadd ((_ sign_extend 1) zz4715/6) ((_ sign_extend 1) zz4893/2))))
(define-const zz4714/4 (_ BitVec 64) zz4714/2)
(declare-const zz4956/1 Bits)
(assert (= (bvand (bvnot (bvnot (bvshl #xFFFFFFFFFFFFFFFF (concat #x00000000000000 (len zz4956/1))))) (contents zz4956/1)) #x0000000000000000))
(define-const zz4956/2 Bits (Zfloat_bits_zexp (Zfloat_bits (Bits #x05 (concat #b00000000000000000000000000000000000000000000000000000000000 ((_ extract 14 10) zz4706/2))) (Bits #x0A (concat #b000000000000000000000000000000000000000000000000000000 ((_ extract 9 0) zz4706/2))) ((_ extract 15 15) zz4706/2))))
(declare-const zz4960/1 Bits)
(assert (= (bvand (bvnot (bvnot (bvshl #xFFFFFFFFFFFFFFFF (concat #x00000000000000 (len zz4960/1))))) (contents zz4960/1)) #x0000000000000000))
(declare-const zz4962/1 Bits)
(assert (= (bvand (bvnot (bvnot (bvshl #xFFFFFFFFFFFFFFFF (concat #x00000000000000 (len zz4962/1))))) (contents zz4962/1)) #x0000000000000000))
(define-const zz4962/2 Bits (Bits ((_ extract 7 0) (concat #x000000000000000000000000000000 (len zz4956/2))) #x0000000000000000))
(define-const zz4960/2 Bits (Bits (len zz4962/2) (bvand (bvnot (bvshl #xFFFFFFFFFFFFFFFF (concat #x00000000000000 (len zz4962/2)))) (bvnot (contents zz4962/2)))))
(declare-const zz4964/1 Bits)
(assert (= (bvand (bvnot (bvnot (bvshl #xFFFFFFFFFFFFFFFF (concat #x00000000000000 (len zz4964/1))))) (contents zz4964/1)) #x0000000000000000))
(define-const zz4964/2 Bits (Bits ((_ extract 7 0) (concat #x000000000000000000000000000000 (len zz4956/2))) #x0000000000000000))
(define-const zz4933/2 Bool (and (or (not (= (len zz4956/2) (len zz4960/2))) (not (= (bvand (bvnot (bvshl #xFFFFFFFFFFFFFFFF (concat #x00000000000000 (len zz4956/2)))) (contents zz4956/2)) (bvand (bvnot (bvshl #xFFFFFFFFFFFFFFFF (concat #x00000000000000 (len zz4960/2)))) (contents zz4960/2))))) (or (not (= (len zz4956/2) (len zz4964/2))) (not (= (bvand (bvnot (bvshl #xFFFFFFFFFFFFFFFF (concat #x00000000000000 (len zz4956/2)))) (contents zz4956/2)) (bvand (bvnot (bvshl #xFFFFFFFFFFFFFFFF (concat #x00000000000000 (len zz4964/2)))) (contents zz4964/2)))))))
(declare-const zz4967/1 (_ BitVec 64))
(define-const zz4969/2 Bool (= zz4933/2 false))
(define-const zz4971/2 Bool (= zz4933/2 true))
(define-const zphiz3410 Bool (and (not zz4971/2) (not zz4969/2)))
(define-const zz4714/6 (_ BitVec 64) zz4714/4)
(define-const zz4932/2 (_ BitVec 64) (ite zphiz3410 zz4967/1 (ite zz4969/2 #x0000000000000000 #x0000000000000001)))
(define-const zz4713/2 (_ BitVec 64) ((_ extract 63 0) (bvadd ((_ sign_extend 1) zz4714/6) ((_ sign_extend 1) zz4932/2))))
(define-const zz4713/4 (_ BitVec 64) zz4713/2)
(define-const zz4974/2 Zfloat_bits (Zfloat_bits (Bits #x05 (concat #b00000000000000000000000000000000000000000000000000000000000 ((_ extract 14 10) zz4706/2))) (Bits #x0A (concat #b000000000000000000000000000000000000000000000000000000 ((_ extract 9 0) zz4706/2))) ((_ extract 15 15) zz4706/2)))
(declare-const zz4996/1 Bits)
(assert (= (bvand (bvnot (bvnot (bvshl #xFFFFFFFFFFFFFFFF (concat #x00000000000000 (len zz4996/1))))) (contents zz4996/1)) #x0000000000000000))
(define-const zz4996/2 Bits (Zfloat_bits_zexp zz4974/2))
(declare-const zz4997/1 Bits)
(assert (= (bvand (bvnot (bvnot (bvshl #xFFFFFFFFFFFFFFFF (concat #x00000000000000 (len zz4997/1))))) (contents zz4997/1)) #x0000000000000000))
(define-const zz4997/2 Bits (Zfloat_bits_zmantissa zz4974/2))
(declare-const zz41000/1 Bits)
(assert (= (bvand (bvnot (bvnot (bvshl #xFFFFFFFFFFFFFFFF (concat #x00000000000000 (len zz41000/1))))) (contents zz41000/1)) #x0000000000000000))
(declare-const zz41002/1 Bits)
(assert (= (bvand (bvnot (bvnot (bvshl #xFFFFFFFFFFFFFFFF (concat #x00000000000000 (len zz41002/1))))) (contents zz41002/1)) #x0000000000000000))
(define-const zz41002/2 Bits (Bits ((_ extract 7 0) (concat #x000000000000000000000000000000 (len zz4996/2))) #x0000000000000000))
(define-const zz41000/2 Bits (Bits (len zz41002/2) (bvand (bvnot (bvshl #xFFFFFFFFFFFFFFFF (concat #x00000000000000 (len zz41002/2)))) (bvnot (contents zz41002/2)))))
(declare-const zz41004/1 Bits)
(assert (= (bvand (bvnot (bvnot (bvshl #xFFFFFFFFFFFFFFFF (concat #x00000000000000 (len zz41004/1))))) (contents zz41004/1)) #x0000000000000000))
(define-const zz41004/2 Bits (Bits ((_ extract 7 0) (concat #x000000000000000000000000000000 (len zz4997/2))) #x0000000000000000))
(define-const zz4973/2 Bool (and (= (len zz4996/2) (len zz41000/2)) (= (bvand (bvnot (bvshl #xFFFFFFFFFFFFFFFF (concat #x00000000000000 (len zz4996/2)))) (contents zz4996/2)) (bvand (bvnot (bvshl #xFFFFFFFFFFFFFFFF (concat #x00000000000000 (len zz41000/2)))) (contents zz41000/2))) (= (len zz4997/2) (len zz41004/2)) (= (bvand (bvnot (bvshl #xFFFFFFFFFFFFFFFF (concat #x00000000000000 (len zz4997/2)))) (contents zz4997/2)) (bvand (bvnot (bvshl #xFFFFFFFFFFFFFFFF (concat #x00000000000000 (len zz41004/2)))) (contents zz41004/2)))))
(declare-const zz41006/1 (_ BitVec 64))
(define-const zz41008/2 Bool (= zz4973/2 false))
(define-const zz41010/2 Bool (= zz4973/2 true))
(define-const zphiz3477 Bool (and (not zz41010/2) (not zz41008/2)))
(define-const zz4713/6 (_ BitVec 64) zz4713/4)
(define-const zz4972/2 (_ BitVec 64) (ite zphiz3477 zz41006/1 (ite zz41008/2 #x0000000000000000 #x0000000000000001)))
(assert (and (or (and (or zz41010/2 zz41008/2) (not zz41008/2) (or zz41008/2 (not zz41010/2))) (not (= ((_ extract 63 0) (bvadd ((_ sign_extend 1) zz4713/6) ((_ sign_extend 1) zz4972/2))) #x0000000000000001))) (ite (= ((_ extract 127 127) (bvsub ((_ sign_extend 1) zz4780/2) #b000000000000000000000000000000000000000000000000000000000000000000000000000000000000000000000000000000000000000000000000000000001)) #b1) (= ((_ extract 128 128) (bvsub ((_ sign_extend 1) zz4780/2) #b000000000000000000000000000000000000000000000000000000000000000000000000000000000000000000000000000000000000000000000000000000001)) #b1) (= ((_ extract 128 128) (bvsub ((_ sign_extend 1) zz4780/2) #b000000000000000000000000000000000000000000000000000000000000000000000000000000000000000000000000000000000000000000000000000000001)) #b0)) (ite (= ((_ extract 127 127) (bvsub ((_ sign_extend 1) zz4849/2) #b000000000000000000000000000000000000000000000000000000000000000000000000000000000000000000000000000000000000000000000000000000001)) #b1) (= ((_ extract 128 128) (bvsub ((_ sign_extend 1) zz4849/2) #b000000000000000000000000000000000000000000000000000000000000000000000000000000000000000000000000000000000000000000000000000000001)) #b1) (= ((_ extract 128 128) (bvsub ((_ sign_extend 1) zz4849/2) #b000000000000000000000000000000000000000000000000000000000000000000000000000000000000000000000000000000000000000000000000000000001)) #b0)) (or (and (or zz4854/2 zz4852/2) (not zz4852/2) (or zz4852/2 (not zz4854/2))) (ite (= ((_ extract 63 63) (bvadd ((_ sign_extend 1) zz4717/8) ((_ sign_extend 1) zz4786/2))) #b1) (= ((_ extract 64 64) (bvadd ((_ sign_extend 1) zz4717/8) ((_ sign_extend 1) zz4786/2))) #b1) (= ((_ extract 64 64) (bvadd ((_ sign_extend 1) zz4717/8) ((_ sign_extend 1) zz4786/2))) #b0))) (or (and (or zz4892/2 zz4890/2) (not zz4890/2) (or zz4890/2 (not zz4892/2))) (ite (= ((_ extract 63 63) (bvadd ((_ sign_extend 1) zz4716/6) ((_ sign_extend 1) zz4855/2))) #b1) (= ((_ extract 64 64) (bvadd ((_ sign_extend 1) zz4716/6) ((_ sign_extend 1) zz4855/2))) #b1) (= ((_ extract 64 64) (bvadd ((_ sign_extend 1) zz4716/6) ((_ sign_extend 1) zz4855/2))) #b0))) (or (and (or zz4931/2 zz4929/2) (not zz4929/2) (or zz4929/2 (not zz4931/2))) (ite (= ((_ extract 63 63) (bvadd ((_ sign_extend 1) zz4715/6) ((_ sign_extend 1) zz4893/2))) #b1) (= ((_ extract 64 64) (bvadd ((_ sign_extend 1) zz4715/6) ((_ sign_extend 1) zz4893/2))) #b1) (= ((_ extract 64 64) (bvadd ((_ sign_extend 1) zz4715/6) ((_ sign_extend 1) zz4893/2))) #b0))) (or (and (or zz4971/2 zz4969/2) (not zz4969/2) (or zz4969/2 (not zz4971/2))) (ite (= ((_ extract 63 63) (bvadd ((_ sign_extend 1) zz4714/6) ((_ sign_extend 1) zz4932/2))) #b1) (= ((_ extract 64 64) (bvadd ((_ sign_extend 1) zz4714/6) ((_ sign_extend 1) zz4932/2))) #b1) (= ((_ extract 64 64) (bvadd ((_ sign_extend 1) zz4714/6) ((_ sign_extend 1) zz4932/2))) #b0))) (or (and (or zz41010/2 zz41008/2) (not zz41008/2) (or zz41008/2 (not zz41010/2))) (ite (= ((_ extract 63 63) (bvadd ((_ sign_extend 1) zz4713/6) ((_ sign_extend 1) zz4972/2))) #b1) (= ((_ extract 64 64) (bvadd ((_ sign_extend 1) zz4713/6) ((_ sign_extend 1) zz4972/2))) #b1) (= ((_ extract 64 64) (bvadd ((_ sign_extend 1) zz4713/6) ((_ sign_extend 1) zz4972/2))) #b0)))))
(check-sat)
